n_res = 4;
rc = [ 24, 23, 25, 33 ];
n_tasks = 30;
d = [ 2, 5, 6, 4, 2, 9, 9, 4, 8, 7, 10, 1, 1, 1, 5, 2, 5, 5, 9, 10, 1, 5, 4, 10, 5, 9, 10, 2, 10, 3 ];
rr = [| 24, 24, 24, 24, 24, 24, 24, 24, 24, 24, 24, 24, 24, 24, 24, 24, 24, 24, 24, 24, 24, 24, 24, 24, 24, 24, 24, 24, 24, 24
      | 23, 23, 23, 23, 23, 23, 23, 23, 23, 23, 23, 23, 23, 23, 23, 23, 23, 23, 23, 23, 23, 23, 23, 23, 23, 23, 23, 23, 23, 23
      | 25, 25, 25, 25, 25, 25, 25, 25, 25, 25, 25, 25, 25, 25, 25, 25, 25, 25, 25, 25, 25, 25, 25, 25, 25, 25, 25, 25, 25, 25
      | 33, 33, 33, 33, 33, 33, 33, 33, 33, 33, 33, 33, 33, 33, 33, 33, 33, 33, 33, 33, 33, 33, 33, 33, 33, 33, 33, 33, 33, 33|];
suc = [ { 9, 10, 27 },
       { 8, 14, 15 },
       { 4, 5, 6 },
       { 7 },
       { 17, 26 },
       { 13, 17 },
       { 11, 12, 18 },
       { 9 },
       { 21 },
       { 24 },
       { 29 },
       { 19 },
       { 30 },
       { 20, 23 },
       { 16, 26, 29 },
       { 17 },
       { 20 },
       { 28 },
       { 22 },
       { 25 },
       { 22 },
       { 25 },
       { 24 },
       { 25, 26, 29 },
       { 28 },
       { 30 },
       { 30 },
       {  },
       {  },
       {  } ];
